167	32	4	110	
10	10	10	10

0	0	0	0	0	0	1	1
1	1	1	0	1	1	2	3	2
2	3	3	1	0	9	3	7	5	4
3	3	5	3	0	10	3	7	5	4
4	3	3	8	0	8	1	6
5	7	6	0	5	2	1	6
6	3	5	5	0	6	2	9	8
7	4	4	4	0	10	2	9	8
8	4	6	5	0	1	2	11	10
9	6	2	5	0	7	2	11	10
10	0	3	5	4	3	3	14	13	12
11	5	3	0	5	7	3	14	13	12
12	2	3	0	4	7	2	16	15
13	0	5	2	2	4	1	15
14	6	3	4	0	8	1	15
15	2	0	2	4	4	1	17
16	2	0	2	4	9	1	17
17	0	3	6	3	5	1	18
18	0	4	6	6	8	1	19
19	3	5	0	4	2	1	20
20	0	3	4	2	6	4	24	23	22	21
21	3	3	0	5	6	4	28	27	26	25
22	6	5	0	6	7	4	28	27	26	25
23	0	5	7	5	9	3	28	27	25
24	4	5	3	0	7	2	26	25
25	4	5	2	0	2	2	30	29
26	4	4	3	0	6	2	30	29
27	8	0	3	5	2	2	30	29
28	2	6	4	0	2	1	29
29	8	5	0	5	8	1	31
30	3	3	0	2	1	1	31
31	0	0	0	0	0	0
